16

N     28.728000    27.478000    25.023000
O     29.058000    28.588000    24.673000
O     29.048000    26.448000    24.493000
C     27.978000    27.468000    26.313000
C     28.048000    26.428000    27.203000
C     27.568000    26.618000    28.553000
C     27.008000    27.828000    28.913000
C     26.868000    28.878000    27.983000
C     27.298000    28.638000    26.673000
N     26.648000    28.028000    30.173000
H     26.458000    28.948000    30.493000
H     27.188000    27.418000    30.843000
H     28.698000    25.548000    26.973000
H     27.758000    25.848000    29.303000
H     26.278000    29.788000    28.293000
H     27.318000    29.458000    25.993000
